;; Category : IPv4 addresses
;; Benchmark: ipv4_bounded vs ipv4_cidr
;; R1: Bounded digits: d{1,3}.d{1,3}.d{1,3}.d{1,3}
;; R2: Bounded + optional /prefix-length
;; Status   : sat
;;
;; Equivalence check: unsat ⟺ L(R1) = L(R2)

(set-info :smt-lib-version 2.6)
(set-info :category "ipv4")
(set-info :status sat)
(set-logic QF_S)

(assert
  (not
    (=
      (re.inter (re.++ ((_ re.loop 1 3) (re.range "0" "9")) (str.to_re ".") ((_ re.loop 1 3) (re.range "0" "9")) (str.to_re ".") ((_ re.loop 1 3) (re.range "0" "9")) (str.to_re ".") ((_ re.loop 1 3) (re.range "0" "9"))) (re.comp (re.++ (re.++ ((_ re.loop 1 3) (re.range "0" "9")) (str.to_re ".") ((_ re.loop 1 3) (re.range "0" "9")) (str.to_re ".") ((_ re.loop 1 3) (re.range "0" "9")) (str.to_re ".") ((_ re.loop 1 3) (re.range "0" "9"))) (re.opt (re.++ (str.to_re "/") ((_ re.loop 1 2) (re.range "0" "9")))))))
      (re.inter (re.comp (re.++ ((_ re.loop 1 3) (re.range "0" "9")) (str.to_re ".") ((_ re.loop 1 3) (re.range "0" "9")) (str.to_re ".") ((_ re.loop 1 3) (re.range "0" "9")) (str.to_re ".") ((_ re.loop 1 3) (re.range "0" "9")))) (re.++ (re.++ ((_ re.loop 1 3) (re.range "0" "9")) (str.to_re ".") ((_ re.loop 1 3) (re.range "0" "9")) (str.to_re ".") ((_ re.loop 1 3) (re.range "0" "9")) (str.to_re ".") ((_ re.loop 1 3) (re.range "0" "9"))) (re.opt (re.++ (str.to_re "/") ((_ re.loop 1 2) (re.range "0" "9")))))))))

(check-sat)
(exit)
